; benchmark generated from python API
(set-info :status unknown)
(declare-sort tcp.endpoint)
 (declare-sort timestamp)
 (declare-sort msg_t)
 (declare-sort host_id)
 (declare-datatypes ((msg_kind 0)) ((msg_kind (request) (reply) (release))))
 (declare-datatypes ((node.state_t 0)) ((node.state_t (node.idle) (node.waiting) (node.critical))))
 (declare-fun msg_t.ts (msg_t) timestamp)
(declare-fun timestamp.max (timestamp timestamp) timestamp)
(declare-fun node.reply_ts (host_id host_id) timestamp)
(declare-fun |__prm:V0| () host_id)
(declare-fun node.request_ts (host_id host_id) timestamp)
(declare-fun |0:timestamp| () timestamp)
(declare-fun __node.state (host_id) node.state_t)
(declare-fun __node.client_state (host_id) node.state_t)
(declare-fun node.client_state (host_id) node.state_t)
(declare-fun |__new_prm:V0_a| () host_id)
(declare-fun node.state (host_id) node.state_t)
(declare-fun msg_t.kind (msg_t) msg_kind)
(declare-fun |__fml:msg| () msg_t)
(declare-fun |__ts0__new_fml:msg| () msg_t)
(declare-fun |__ts0__new_fml:dst| () tcp.endpoint)
(declare-fun node.sock.id (host_id) tcp.endpoint)
(declare-fun |__ts0__new_prm:V0| () host_id)
(declare-fun |__ts0__new_fml:dst_id| () host_id)
(declare-fun |__new_loc:outgoing| () msg_t)
(declare-fun |__ts0__new_fml:outgoing| () msg_t)
(declare-fun |__ts0__new_prm:V0_a| () host_id)
(declare-fun __node.request_ts (host_id host_id) timestamp)
(declare-fun msg_t.sender_id (msg_t) host_id)
(declare-fun __node.reply_ts (host_id host_id) timestamp)
(declare-fun |__m_loc:outgoing_a| () msg_t)
(declare-fun |__loc:outgoing_nd_b| () msg_t)
(declare-fun |__loc:outgoing_nd_a| () msg_t)
(declare-fun |__loc:outgoing_nd| () msg_t)
(declare-fun |__m_loc:outgoing| () msg_t)
(declare-fun __node.ts (host_id) timestamp)
(declare-fun |__fml:y| () timestamp)
(declare-fun node.ts (host_id) timestamp)
(declare-fun |__new_fml:x| () timestamp)
(declare-fun host_id.max () host_id)
(declare-fun |0:host_id| () host_id)
(declare-fun __X () host_id)
(declare-fun |__loc:outgoing| () msg_t)
(declare-fun |__fml:src| () tcp.endpoint)
(declare-fun |<:host_id:host_id| (host_id host_id) Bool)
(declare-fun |<:timestamp:timestamp| (timestamp timestamp) Bool)
(declare-fun node.lexord (host_id timestamp host_id timestamp host_id) Bool)
(declare-fun |<:msg_t:msg_t| (msg_t msg_t) Bool)
(declare-fun __ts0_a_a () Bool)
(declare-fun __ts0_a () Bool)
(declare-fun __net.sent (tcp.endpoint tcp.endpoint msg_t) Bool)
(declare-fun net.sent (tcp.endpoint tcp.endpoint msg_t) Bool)
(declare-fun __ts0__ts0_b_a () Bool)
(declare-fun __ts0__ts0__ts0_a_a_a () Bool)
(declare-fun timestamp.succ (timestamp timestamp) Bool)
(declare-fun host_id.succ (host_id host_id) Bool)
(assert
 (let (($x424 (forall ((|V0:host_id| host_id) (|X1:timestamp| timestamp) (|X2:timestamp| timestamp) (|Y1:host_id| host_id) (|Y2:host_id| host_id) )(let (($x458 (or (|<:timestamp:timestamp| |X1:timestamp| |X2:timestamp|) (and (= |X1:timestamp| |X2:timestamp|) (|<:host_id:host_id| |Y1:host_id| |Y2:host_id|)))))
 (= (node.lexord |V0:host_id| |X1:timestamp| |Y1:host_id| |X2:timestamp| |Y2:host_id|) $x458)))
 ))
 (let (($x451 (forall ((|M1:msg_t| msg_t) (|M2:msg_t| msg_t) )(= (|<:msg_t:msg_t| |M1:msg_t| |M2:msg_t|) (|<:timestamp:timestamp| (msg_t.ts |M1:msg_t|) (msg_t.ts |M2:msg_t|))))
 ))
 (let (($x442 (forall ((|X:timestamp| timestamp) (|Y:timestamp| timestamp) )(= (timestamp.max |X:timestamp| |Y:timestamp|) (ite (or (= |X:timestamp| |Y:timestamp|) (|<:timestamp:timestamp| |X:timestamp| |Y:timestamp|)) |Y:timestamp| |X:timestamp|)))
 ))
 (let (($x440 (forall ((|X:host_id| host_id) )(let (($x433 (|<:timestamp:timestamp| (node.request_ts |__prm:V0| |__prm:V0|) (node.reply_ts |__prm:V0| |X:host_id|))))
 (let (($x436 (node.lexord |__prm:V0| (node.request_ts |__prm:V0| |__prm:V0|) |__prm:V0| (node.request_ts |__prm:V0| |X:host_id|) |X:host_id|)))
 (let (($x377 (and (or (= (node.request_ts |__prm:V0| |X:host_id|) |0:timestamp|) $x436) $x433)))
 (=> (not (= |X:host_id| |__prm:V0|)) $x377)))))
 ))
 (let (($x417 (forall ((|V0:host_id| host_id) )(= (node.client_state |V0:host_id|) (__node.client_state |V0:host_id|)))
 ))
 (let (($x407 (forall ((|V0:host_id| host_id) )(= (node.state |V0:host_id|) (ite (and (= |V0:host_id| |__prm:V0|)) node.critical (__node.state |V0:host_id|))))
 ))
 (let (($x379 (forall ((|V0:tcp.endpoint| tcp.endpoint) (|V1:tcp.endpoint| tcp.endpoint) (|V2:msg_t| msg_t) )(let (($x397 (and (= |V0:tcp.endpoint| (node.sock.id |__ts0__new_prm:V0|)) (= |V1:tcp.endpoint| |__ts0__new_fml:dst|) (= |V2:msg_t| |__ts0__new_fml:msg|))))
 (let (($x411 (ite __ts0_a (ite $x397 and (__net.sent |V0:tcp.endpoint| |V1:tcp.endpoint| |V2:msg_t|)) (__net.sent |V0:tcp.endpoint| |V1:tcp.endpoint| |V2:msg_t|))))
 (= (net.sent |V0:tcp.endpoint| |V1:tcp.endpoint| |V2:msg_t|) $x411))))
 ))
 (let (($x337 (forall ((|V0:host_id| host_id) (|V1:host_id| host_id) )(let ((?x394 (__node.request_ts |V0:host_id| |V1:host_id|)))
 (let (($x280 (and (= |V0:host_id| |__prm:V0|) (= |V1:host_id| (msg_t.sender_id |__fml:msg|)))))
 (let ((?x408 (ite __ts0_a (ite $x280 (msg_t.ts |__fml:msg|) ?x394) (ite __ts0__ts0_b_a (ite $x280 |0:timestamp| ?x394) ?x394))))
 (= (node.request_ts |V0:host_id| |V1:host_id|) ?x408)))))
 ))
 (let (($x404 (forall ((|V0:host_id| host_id) (|V1:host_id| host_id) )(let ((?x65 (__node.reply_ts |V0:host_id| |V1:host_id|)))
 (let ((?x256 (msg_t.ts |__fml:msg|)))
 (let (($x280 (and (= |V0:host_id| |__prm:V0|) (= |V1:host_id| (msg_t.sender_id |__fml:msg|)))))
 (let ((?x405 (ite __ts0__ts0_b_a ?x65 (ite __ts0__ts0__ts0_a_a_a (ite $x280 ?x256 ?x65) ?x65))))
 (= (node.reply_ts |V0:host_id| |V1:host_id|) (ite __ts0_a ?x65 ?x405)))))))
 ))
 (let (($x315 (= |__new_loc:outgoing| (ite __ts0_a |__loc:outgoing_nd_b| |__m_loc:outgoing_a|))))
 (let (($x339 (forall ((|V0:host_id| host_id) )(= (node.ts |V0:host_id|) (ite (and (= |V0:host_id| |__prm:V0|)) |__fml:y| (__node.ts |V0:host_id|))))
 ))
 (let (($x341 (= |__new_fml:x| (timestamp.max (msg_t.ts |__fml:msg|) (__node.ts |__prm:V0|)))))
 (let (($x352 (forall ((|X:msg_t| msg_t) (|Y:msg_t| msg_t) )(let (($x354 (and (= (msg_t.kind |X:msg_t|) (msg_t.kind |Y:msg_t|)) (= (msg_t.sender_id |X:msg_t|) (msg_t.sender_id |Y:msg_t|)) (= (msg_t.ts |X:msg_t|) (msg_t.ts |Y:msg_t|)))))
 (=> $x354 (= |X:msg_t| |Y:msg_t|))))
 ))
 (let (($x327 (forall ((|X:timestamp| timestamp) )(or (= |0:timestamp| |X:timestamp|) (|<:timestamp:timestamp| |0:timestamp| |X:timestamp|)))
 ))
 (let (($x230 (forall ((|T:timestamp| timestamp) (|U:timestamp| timestamp) )(let (($x346 (|<:timestamp:timestamp| |T:timestamp| |U:timestamp|)))
 (or $x346 (= |T:timestamp| |U:timestamp|) (|<:timestamp:timestamp| |U:timestamp| |T:timestamp|))))
 ))
 (let (($x332 (forall ((|T:timestamp| timestamp) (|U:timestamp| timestamp) )(not (and (|<:timestamp:timestamp| |T:timestamp| |U:timestamp|) (|<:timestamp:timestamp| |U:timestamp| |T:timestamp|))))
 ))
 (let (($x292 (forall ((|T:timestamp| timestamp) (|U:timestamp| timestamp) (|V:timestamp| timestamp) )(=> (and (|<:timestamp:timestamp| |T:timestamp| |U:timestamp|) (|<:timestamp:timestamp| |U:timestamp| |V:timestamp|)) (|<:timestamp:timestamp| |T:timestamp| |V:timestamp|)))
 ))
 (let (($x313 (forall ((|X:timestamp| timestamp) (|Y:timestamp| timestamp) (|Z:timestamp| timestamp) )(let (($x336 (not (and (|<:timestamp:timestamp| |X:timestamp| |Y:timestamp|) (|<:timestamp:timestamp| |Y:timestamp| |Z:timestamp|)))))
 (=> (timestamp.succ |X:timestamp| |Z:timestamp|) (and (|<:timestamp:timestamp| |X:timestamp| |Z:timestamp|) $x336))))
 ))
 (let (($x326 (forall ((|X:host_id| host_id) )(or (= |X:host_id| host_id.max) (|<:host_id:host_id| |X:host_id| host_id.max)))
 ))
 (let (($x293 (forall ((|X:host_id| host_id) )(or (= |0:host_id| |X:host_id|) (|<:host_id:host_id| |0:host_id| |X:host_id|)))
 ))
 (let (($x304 (forall ((|T:host_id| host_id) (|U:host_id| host_id) )(let (($x60 (= |T:host_id| |U:host_id|)))
 (let (($x291 (|<:host_id:host_id| |T:host_id| |U:host_id|)))
 (or $x291 $x60 (|<:host_id:host_id| |U:host_id| |T:host_id|)))))
 ))
 (let (($x309 (forall ((|T:host_id| host_id) (|U:host_id| host_id) )(not (and (|<:host_id:host_id| |T:host_id| |U:host_id|) (|<:host_id:host_id| |U:host_id| |T:host_id|))))
 ))
 (let (($x290 (forall ((|T:host_id| host_id) (|U:host_id| host_id) (|V:host_id| host_id) )(=> (and (|<:host_id:host_id| |T:host_id| |U:host_id|) (|<:host_id:host_id| |U:host_id| |V:host_id|)) (|<:host_id:host_id| |T:host_id| |V:host_id|)))
 ))
 (let (($x307 (forall ((|X:host_id| host_id) (|Y:host_id| host_id) (|Z:host_id| host_id) )(let (($x306 (and (|<:host_id:host_id| |X:host_id| |Z:host_id|) (not (and (|<:host_id:host_id| |X:host_id| |Y:host_id|) (|<:host_id:host_id| |Y:host_id| |Z:host_id|))))))
 (=> (host_id.succ |X:host_id| |Z:host_id|) $x306)))
 ))
 (let (($x238 (forall ((|N:host_id| host_id) )(or (= |N:host_id| |0:host_id|) (|<:host_id:host_id| |0:host_id| |N:host_id|)))
 ))
 (let (($x283 (forall ((|X:host_id| host_id) (|Y:host_id| host_id) )(let (($x60 (= |X:host_id| |Y:host_id|)))
 (=> (= (node.sock.id |X:host_id|) (node.sock.id |Y:host_id|)) $x60)))
 ))
 (let (($x241 (exists ((|M:msg_t| msg_t) )(and (and (= (msg_t.kind |M:msg_t|) request) (= (msg_t.sender_id |M:msg_t|) __X)) (= (msg_t.ts |M:msg_t|) (node.request_ts __X __X))))
 ))
 (let (($x287 (not (=> (and $x241) (not (= (__node.client_state __X) node.critical))))))
 (let (($x288 (or (not __ts0_a_a) (= (__node.client_state |__new_prm:V0_a|) node.waiting))))
 (let (($x248 (forall ((|M:msg_t| msg_t) )(let (($x243 (=> (__net.sent (node.sock.id |__ts0__new_prm:V0|) |__ts0__new_fml:dst| |M:msg_t|) (|<:msg_t:msg_t| |M:msg_t| |__ts0__new_fml:msg|))))
 (let (($x217 (not __ts0_a)))
 (or $x217 $x243))))
 ))
 (let (($x217 (not __ts0_a)))
 (let (($x222 (or $x217 (= (msg_t.ts |__loc:outgoing_nd_b|) (msg_t.ts |__m_loc:outgoing_a|)))))
 (let (($x219 (= (msg_t.sender_id |__loc:outgoing_nd_b|) (msg_t.sender_id |__m_loc:outgoing_a|))))
 (let (($x223 (= (msg_t.sender_id |__loc:outgoing_nd_a|) (msg_t.sender_id |__m_loc:outgoing|))))
 (let (($x90 (forall ((|Y:timestamp| timestamp) )(=> (|<:timestamp:timestamp| |__new_fml:x| |Y:timestamp|) (or (= |__fml:y| |Y:timestamp|) (|<:timestamp:timestamp| |__fml:y| |Y:timestamp|))))
 ))
 (let (($x196 (forall ((|M:msg_t| msg_t) )(=> (__net.sent |__fml:src| (node.sock.id |__prm:V0|) |M:msg_t|) (or (= |__fml:msg| |M:msg_t|) (|<:msg_t:msg_t| |__fml:msg| |M:msg_t|))))
 ))
 (let (($x141 (forall ((|M:msg_t| msg_t) (|S:tcp.endpoint| tcp.endpoint) (|Y:host_id| host_id) )(let ((?x167 (msg_t.ts |M:msg_t|)))
 (let (($x169 (or (= (__node.reply_ts |Y:host_id| (msg_t.sender_id |M:msg_t|)) ?x167) (|<:timestamp:timestamp| (__node.reply_ts |Y:host_id| (msg_t.sender_id |M:msg_t|)) ?x167))))
 (let ((?x79 (node.sock.id |Y:host_id|)))
 (let (($x120 (__net.sent |S:tcp.endpoint| ?x79 |M:msg_t|)))
 (=> $x120 $x169))))))
 ))
 (let (($x173 (forall ((|M:msg_t| msg_t) (|S:tcp.endpoint| tcp.endpoint) (|V0:host_id| host_id) (|Y:host_id| host_id) )(let (($x99 (or (= (__node.request_ts |Y:host_id| |V0:host_id|) (msg_t.ts |M:msg_t|)) (|<:timestamp:timestamp| (__node.request_ts |Y:host_id| |V0:host_id|) (msg_t.ts |M:msg_t|)))))
 (let (($x43 (= (msg_t.sender_id |M:msg_t|) |V0:host_id|)))
 (let ((?x79 (node.sock.id |Y:host_id|)))
 (let (($x73 (__net.sent |S:tcp.endpoint| ?x79 |M:msg_t|)))
 (let (($x131 (and $x73 (= (msg_t.kind |M:msg_t|) request) $x43 (|<:timestamp:timestamp| |0:timestamp| (__node.request_ts |Y:host_id| |V0:host_id|)))))
 (=> $x131 $x99)))))))
 ))
 (let (($x148 (forall ((|M:msg_t| msg_t) (|S:tcp.endpoint| tcp.endpoint) (|V0:host_id| host_id) (|Y:host_id| host_id) )(let ((?x18 (__node.request_ts |V0:host_id| |V0:host_id|)))
 (let (($x77 (|<:timestamp:timestamp| |0:timestamp| ?x18)))
 (let (($x99 (or (= (__node.request_ts |Y:host_id| |V0:host_id|) (msg_t.ts |M:msg_t|)) (|<:timestamp:timestamp| (__node.request_ts |Y:host_id| |V0:host_id|) (msg_t.ts |M:msg_t|)))))
 (let (($x43 (= (msg_t.sender_id |M:msg_t|) |V0:host_id|)))
 (let ((?x79 (node.sock.id |Y:host_id|)))
 (let (($x73 (__net.sent |S:tcp.endpoint| ?x79 |M:msg_t|)))
 (=> (and $x73 (= (msg_t.kind |M:msg_t|) release) $x43) (and $x99 (=> $x77 (|<:timestamp:timestamp| (msg_t.ts |M:msg_t|) ?x18)))))))))))
 ))
 (let (($x83 (forall ((|M:msg_t| msg_t) (|S:tcp.endpoint| tcp.endpoint) (|Y:host_id| host_id) )(let ((?x79 (node.sock.id |Y:host_id|)))
 (let (($x120 (__net.sent |S:tcp.endpoint| ?x79 |M:msg_t|)))
 (=> (and $x120 (= (msg_t.kind |M:msg_t|) request)) (|<:timestamp:timestamp| |0:timestamp| (msg_t.ts |M:msg_t|))))))
 ))
 (let (($x206 (forall ((|M:msg_t| msg_t) (|S:tcp.endpoint| tcp.endpoint) (|V0:host_id| host_id) (|Y:host_id| host_id) )(let (($x203 (or (= (msg_t.ts |M:msg_t|) (__node.request_ts |V0:host_id| |V0:host_id|)) (|<:timestamp:timestamp| (msg_t.ts |M:msg_t|) (__node.request_ts |V0:host_id| |V0:host_id|)))))
 (let ((?x18 (__node.request_ts |V0:host_id| |V0:host_id|)))
 (let (($x77 (|<:timestamp:timestamp| |0:timestamp| ?x18)))
 (let (($x43 (= (msg_t.sender_id |M:msg_t|) |V0:host_id|)))
 (let ((?x79 (node.sock.id |Y:host_id|)))
 (let (($x73 (__net.sent |S:tcp.endpoint| ?x79 |M:msg_t|)))
 (=> (and $x73 (= (msg_t.kind |M:msg_t|) request) $x43 $x77) $x203))))))))
 ))
 (let (($x171 (forall ((|V0:host_id| host_id) (|Y:host_id| host_id) )(or (= (__node.request_ts |Y:host_id| |V0:host_id|) (__node.ts |V0:host_id|)) (|<:timestamp:timestamp| (__node.request_ts |Y:host_id| |V0:host_id|) (__node.ts |V0:host_id|))))
 ))
 (let (($x201 (forall ((|V0:host_id| host_id) (|Y:host_id| host_id) )(let ((?x18 (__node.request_ts |V0:host_id| |V0:host_id|)))
 (let ((?x14 (__node.request_ts |Y:host_id| |V0:host_id|)))
 (let (($x77 (|<:timestamp:timestamp| |0:timestamp| ?x18)))
 (let (($x147 (not (= |Y:host_id| |V0:host_id|))))
 (=> (and $x147 $x77) (or (= ?x14 ?x18) (|<:timestamp:timestamp| ?x14 ?x18))))))))
 ))
 (let (($x33 (forall ((|V0:host_id| host_id) (|Y:host_id| host_id) )(=> (and (= (__node.state |V0:host_id|) node.critical) (not (= |Y:host_id| |V0:host_id|))) (|<:timestamp:timestamp| (__node.request_ts |V0:host_id| |V0:host_id|) (__node.ts |Y:host_id|))))
 ))
 (let (($x138 (forall ((|V0:host_id| host_id) (|X:host_id| host_id) (|Y:host_id| host_id) )(let ((?x18 (__node.request_ts |X:host_id| |X:host_id|)))
 (let ((?x145 (__node.state |Y:host_id|)))
 (let (($x38 (= ?x145 node.critical)))
 (let (($x185 (and (= (__node.state |X:host_id|) node.waiting) $x38 (node.lexord |V0:host_id| ?x18 |X:host_id| (__node.request_ts |Y:host_id| |Y:host_id|) |Y:host_id|))))
 (not $x185))))))
 ))
 (let (($x149 (forall ((|M:msg_t| msg_t) (|V0:host_id| host_id) (|X:tcp.endpoint| tcp.endpoint) )(=> (__net.sent |X:tcp.endpoint| (node.sock.id |V0:host_id|) |M:msg_t|) (not (= (msg_t.sender_id |M:msg_t|) |V0:host_id|))))
 ))
 (let (($x30 (forall ((|M:msg_t| msg_t) (|V0:host_id| host_id) (|Y:host_id| host_id) )(let (($x183 (or (= (__node.request_ts |V0:host_id| |V0:host_id|) |0:timestamp|) (|<:timestamp:timestamp| (msg_t.ts |M:msg_t|) (__node.request_ts |V0:host_id| |V0:host_id|)))))
 (let ((?x142 (msg_t.sender_id |M:msg_t|)))
 (let (($x135 (= ?x142 |V0:host_id|)))
 (let (($x178 (and (__net.sent (node.sock.id |V0:host_id|) (node.sock.id |Y:host_id|) |M:msg_t|) (= (msg_t.kind |M:msg_t|) release) $x135)))
 (=> $x178 $x183))))))
 ))
 (let (($x31 (forall ((|V0:host_id| host_id) )(let ((?x145 (__node.state |V0:host_id|)))
 (let (($x38 (= ?x145 node.critical)))
 (=> (or (= ?x145 node.waiting) $x38) (|<:timestamp:timestamp| |0:timestamp| (__node.request_ts |V0:host_id| |V0:host_id|))))))
 ))
 (let (($x111 (forall ((|V0:host_id| host_id) (|Y:host_id| host_id) )(let (($x96 (or (= (__node.reply_ts |V0:host_id| |Y:host_id|) (__node.ts |Y:host_id|)) (|<:timestamp:timestamp| (__node.reply_ts |V0:host_id| |Y:host_id|) (__node.ts |Y:host_id|)))))
 (let (($x147 (not (= |Y:host_id| |V0:host_id|))))
 (=> $x147 $x96))))
 ))
 (let (($x16 (forall ((|M:msg_t| msg_t) (|V0:host_id| host_id) (|Y:host_id| host_id) )(let (($x114 (or (__net.sent (node.sock.id |V0:host_id|) (node.sock.id |Y:host_id|) |M:msg_t|) (= (__node.request_ts |Y:host_id| |V0:host_id|) (__node.request_ts |V0:host_id| |V0:host_id|)))))
 (let (($x147 (not (= |Y:host_id| |V0:host_id|))))
 (let ((?x142 (msg_t.sender_id |M:msg_t|)))
 (let (($x135 (= ?x142 |V0:host_id|)))
 (let ((?x18 (__node.request_ts |V0:host_id| |V0:host_id|)))
 (let (($x77 (|<:timestamp:timestamp| |0:timestamp| ?x18)))
 (let (($x175 (and $x77 (= (msg_t.ts |M:msg_t|) ?x18) (= (msg_t.kind |M:msg_t|) request) $x135 $x147)))
 (=> $x175 $x114)))))))))
 ))
 (let (($x42 (forall ((|M:msg_t| msg_t) (|S:tcp.endpoint| tcp.endpoint) (|Y:host_id| host_id) )(let ((?x79 (node.sock.id |Y:host_id|)))
 (let (($x120 (__net.sent |S:tcp.endpoint| ?x79 |M:msg_t|)))
 (=> $x120 (= |S:tcp.endpoint| (node.sock.id (msg_t.sender_id |M:msg_t|)))))))
 ))
 (let (($x161 (forall ((|M:msg_t| msg_t) (|S:tcp.endpoint| tcp.endpoint) (|V0:host_id| host_id) (|Y:host_id| host_id) )(let (($x74 (or (= (__node.ts |V0:host_id|) (msg_t.ts |M:msg_t|)) (|<:timestamp:timestamp| (msg_t.ts |M:msg_t|) (__node.ts |V0:host_id|)))))
 (let (($x43 (= (msg_t.sender_id |M:msg_t|) |V0:host_id|)))
 (let ((?x79 (node.sock.id |Y:host_id|)))
 (let (($x73 (__net.sent |S:tcp.endpoint| ?x79 |M:msg_t|)))
 (=> (and $x73 $x43) $x74))))))
 ))
 (let (($x133 (forall ((|X:host_id| host_id) (|Y:host_id| host_id) )(let (($x60 (= |X:host_id| |Y:host_id|)))
 (let ((?x145 (__node.state |Y:host_id|)))
 (let (($x38 (= ?x145 node.critical)))
 (=> (and (= (__node.state |X:host_id|) node.critical) $x38) $x60)))))
 ))
 (let (($x113 (forall ((|V0:host_id| host_id) )(let ((?x145 (__node.state |V0:host_id|)))
 (= (__node.client_state |V0:host_id|) ?x145)))
 ))
 (and $x113 $x133 $x161 $x42 $x16 $x111 $x31 $x30 $x149 $x138 $x33 $x201 $x171 $x206 $x83 $x148 $x173 $x141 (__net.sent |__fml:src| (node.sock.id |__prm:V0|) |__fml:msg|) $x196 (|<:timestamp:timestamp| |__new_fml:x| |__fml:y|) $x90 (timestamp.succ |__new_fml:x| |__fml:y|) (= (msg_t.kind |__loc:outgoing_nd|) (msg_t.kind |__loc:outgoing|)) (= (msg_t.ts |__loc:outgoing_nd|) (msg_t.ts |__loc:outgoing|)) (= (msg_t.sender_id |__loc:outgoing_nd|) |__prm:V0|) (= (msg_t.kind |__loc:outgoing_nd_a|) (msg_t.kind |__m_loc:outgoing|)) $x223 (= (msg_t.ts |__loc:outgoing_nd_a|) (node.ts |__prm:V0|)) (or $x217 $x219) $x222 (or $x217 (= (msg_t.kind |__loc:outgoing_nd_b|) reply)) $x248 $x288 (or (not __ts0_a_a) $x287) (or __ts0_a_a or) $x283 $x238 $x307 $x290 $x309 $x304 $x293 $x326 $x313 $x292 $x332 $x230 $x327 $x352 $x341 $x339 (= |__m_loc:outgoing| |__loc:outgoing_nd|) (= |__m_loc:outgoing_a| |__loc:outgoing_nd_a|) (= |__ts0__new_fml:dst_id| (msg_t.sender_id |__fml:msg|)) $x315 (= |__ts0__new_fml:msg| |__ts0__new_fml:outgoing|) (= |__ts0__new_prm:V0_a| |__prm:V0|) $x404 $x337 (= |__ts0__new_prm:V0| |__ts0__new_prm:V0_a|) (= __ts0__ts0__ts0_a_a_a (= (msg_t.kind |__fml:msg|) reply)) (= |__ts0__new_fml:outgoing| |__new_loc:outgoing|) (= |__ts0__new_fml:dst| (node.sock.id |__ts0__new_fml:dst_id|)) (= __ts0__ts0_b_a (= (msg_t.kind |__fml:msg|) release)) $x379 (= __ts0_a (= (msg_t.kind |__fml:msg|) request)) $x407 (= |__new_prm:V0_a| |__prm:V0|) $x417 (= __ts0_a_a (and (= (__node.state |__prm:V0|) node.waiting) $x440)) $x442 $x451 $x424))))))))))))))))))))))))))))))))))))))))))))))))))))))))
(assert
 (and (not or)))
(check-sat)
